38 40
20 9 1
1 23 1
23 17 1
12 12 1
11 3 1
5 33 1
24 16 1
6 20 1
6 15 1
20 23 1
21 4 1
27 35 1
1 32 1
20 25 1
33 22 1
1 8 1
3 13 1
23 11 1
21 21 2
6 3 1
32 2 1
26 1 2
29 31 1
26 30 1
15 18 1
1 25 1
5 25 1
23 2 1
28 21 1
3 22 1
16 23 1
4 20 1
29 11 1
35 20 1
23 22 1
15 23 1
10 25 1
7 28 1
40 40 
40 40 
40 40 
40 40 
40 40 
40 40 
40 40 
40 40 
40 40 
40 40 
40 40 
40 40 
40 40 
40 40 
40 40 
40 40 
40 40 
40 40 
40 40 
40 40 
40 40 
40 40 
40 40 
40 40 
40 40 
40 40 
40 40 
40 40 
40 40 
40 40 
40 40 
40 40 
40 40 
40 40 
40 40 
40 40 
40 40 
40 40 
40 40 
40 40 
